# adjusted according to 3.1.2
param n:=5; # 5 demand regions 
param m:=6; # 6 origins 

param F:=
		1 1000
		2 1000
		3 1000
		4 1000
		5 1000
		6 1000; # added F
param D:=
		1	80
		2	270
		3	250
		4	160
		5	180;
param C:
		1	2	3	4	5:=
	1	81	92	101	130	115
	2	117	77	108	98	100
	3	102	105	95	119	111
	4	115	125	90	59	74
	5	142	100	103	105	71
	6	102	105	95	119	111; # this is assuming that the new facility is Europe again
	

